Minimize
  obj: x0 + x1 + x2 + x3

Subject To
  c0: x0 + x1 + x2 + x3 = 38
  c1: x0 + x2 + x3 = 21
  c2: x0 + x1 = 23
  c3: x0 + x1 + x2 + x3 = 38
  c4: x1 + x2 + x3 = 32
  c5: x0 + x3 = 6

Bounds
  x0 >= 0
  x1 >= 0
  x2 >= 0
  x3 >= 0

Generals
  x0 x1 x2 x3

End
